V = 5;
E_n = 20;
E = array2d(1..E_n, 1..2,[
1,2,
1,3,
1,4,
1,5,
2,1,
2,3,
2,4,
2,5,
3,1,
3,2,
3,4,
3,5,
4,1,
4,2,
4,3,
4,5,
5,1,
5,2,
5,3,
5,4,
]);

c = [
500,
1000,
1414,
1000,
500,
500,
1118,
1118,
1000,
500,
1000,
1414,
1414,
1118,
1000,
1000,
1000,
1118,
1414,
1000,
];